
Gurobi 12.0.1 (linux64, Python) logging started Wed Aug 27 09:58:53 2025

Set parameter WLSAccessID
Set parameter WLSSecret
Set parameter LicenseID to value 2652829
Set parameter LogFile to value "gurobi.log"
Academic license 2652829 - for non-commercial use only - registered to bh___@buaa.edu.cn
